param HOURS_PER_DAY := 8;

set EXPERTN :=
'Alojzy'
'Eugeniusz'
'Ignacy'
'Pafnucy'
'Romuald';

param EBOUND_NO := 0;

param EBOUND:
1   2   3   4   5 :=
;

param:
TASKN: TASKS TASKE TASKW :=
'p1' 1 108 400
'p5' 1 77 200
'p6' 1 108 200
'p13' 1 77 200
'p14' 1 108 200
'p15' 1 138 200
'p20' 1 77 200
'p21' 1 108 200
'p22' 1 138 200
'p23' 1 169 200
'p30' 1 77 200
'p31' 1 108 200
'p32' 1 138 200
'p33' 1 169 200
'p34' 1 199 200
;

param:
PAYROLLN: PAYROLLS PAYROLLE :=
'25.Jan' 1 31
'25.Feb' 32 60
'25.Mar' 61 91
'25.Apr' 92 120
'25.May' 121 154;

param:
EXPPAY: PAYROLLBL PAYROLLBU :=
;

param OFFDAY_NO := 57;

param OFFDAY :=
1 6
2 7
3 10
4 13
5 14
6 20
7 21
8 27
9 28
10 34
11 35
12 41
13 42
14 48
15 49
16 55
17 56
18 62
19 63
20 69
21 70
22 76
23 77
24 83
25 84
26 90
27 91
28 97
29 98
30 104
31 105
32 111
33 112
34 118
35 119
36 125
37 126
38 132
39 133
40 139
41 140
42 146
43 147
44 153
45 154
46 160
47 161
48 167
49 168
50 174
51 175
52 181
53 182
54 188
55 189
56 195
57 196;

param XBDAY_NO := 345;

param XBDAY:
1   2   3   4   5 :=
1 'Alojzy' 'p1' 1 2 2
2 'Alojzy' 'p1' 2 2 2
3 'Alojzy' 'p1' 3 2 2
4 'Alojzy' 'p1' 4 2 2
5 'Alojzy' 'p1' 5 2 2
6 'Alojzy' 'p1' 8 2 2
7 'Alojzy' 'p1' 9 2 2
8 'Alojzy' 'p1' 11 2 2
9 'Alojzy' 'p1' 12 2 2
10 'Alojzy' 'p1' 15 2 2
11 'Alojzy' 'p1' 16 2 2
12 'Alojzy' 'p1' 17 2 2
13 'Alojzy' 'p1' 18 2 2
14 'Alojzy' 'p1' 19 2 2
15 'Alojzy' 'p1' 22 2 2
16 'Alojzy' 'p1' 23 2 2
17 'Alojzy' 'p1' 24 2 2
18 'Alojzy' 'p1' 25 2 2
19 'Alojzy' 'p1' 26 2 2
20 'Alojzy' 'p1' 29 2 2
21 'Alojzy' 'p1' 30 2 2
22 'Alojzy' 'p1' 31 2 2
23 'Alojzy' 'p1' 32 2 2
24 'Eugeniusz' 'p5' 1 2 2
25 'Eugeniusz' 'p5' 2 2 2
26 'Eugeniusz' 'p5' 3 2 2
27 'Eugeniusz' 'p5' 4 2 2
28 'Eugeniusz' 'p5' 5 2 2
29 'Eugeniusz' 'p5' 8 2 2
30 'Eugeniusz' 'p5' 9 2 2
31 'Eugeniusz' 'p5' 11 2 2
32 'Eugeniusz' 'p5' 12 2 2
33 'Eugeniusz' 'p5' 15 2 2
34 'Eugeniusz' 'p5' 16 2 2
35 'Eugeniusz' 'p5' 17 2 2
36 'Eugeniusz' 'p5' 18 2 2
37 'Eugeniusz' 'p5' 19 2 2
38 'Eugeniusz' 'p5' 22 2 2
39 'Eugeniusz' 'p5' 23 2 2
40 'Eugeniusz' 'p5' 24 2 2
41 'Eugeniusz' 'p5' 25 2 2
42 'Eugeniusz' 'p5' 26 2 2
43 'Eugeniusz' 'p5' 29 2 2
44 'Eugeniusz' 'p5' 30 2 2
45 'Eugeniusz' 'p5' 31 2 2
46 'Eugeniusz' 'p5' 32 2 2
47 'Eugeniusz' 'p6' 1 2 2
48 'Eugeniusz' 'p6' 2 2 2
49 'Eugeniusz' 'p6' 3 2 2
50 'Eugeniusz' 'p6' 4 2 2
51 'Eugeniusz' 'p6' 5 2 2
52 'Eugeniusz' 'p6' 8 2 2
53 'Eugeniusz' 'p6' 9 2 2
54 'Eugeniusz' 'p6' 11 2 2
55 'Eugeniusz' 'p6' 12 2 2
56 'Eugeniusz' 'p6' 15 2 2
57 'Eugeniusz' 'p6' 16 2 2
58 'Eugeniusz' 'p6' 17 2 2
59 'Eugeniusz' 'p6' 18 2 2
60 'Eugeniusz' 'p6' 19 2 2
61 'Eugeniusz' 'p6' 22 2 2
62 'Eugeniusz' 'p6' 23 2 2
63 'Eugeniusz' 'p6' 24 2 2
64 'Eugeniusz' 'p6' 25 2 2
65 'Eugeniusz' 'p6' 26 2 2
66 'Eugeniusz' 'p6' 29 2 2
67 'Eugeniusz' 'p6' 30 2 2
68 'Eugeniusz' 'p6' 31 2 2
69 'Eugeniusz' 'p6' 32 2 2
70 'Ignacy' 'p13' 1 2 2
71 'Ignacy' 'p13' 2 2 2
72 'Ignacy' 'p13' 3 2 2
73 'Ignacy' 'p13' 4 2 2
74 'Ignacy' 'p13' 5 2 2
75 'Ignacy' 'p13' 8 2 2
76 'Ignacy' 'p13' 9 2 2
77 'Ignacy' 'p13' 11 2 2
78 'Ignacy' 'p13' 12 2 2
79 'Ignacy' 'p13' 15 2 2
80 'Ignacy' 'p13' 16 2 2
81 'Ignacy' 'p13' 17 2 2
82 'Ignacy' 'p13' 18 2 2
83 'Ignacy' 'p13' 19 2 2
84 'Ignacy' 'p13' 22 2 2
85 'Ignacy' 'p13' 23 2 2
86 'Ignacy' 'p13' 24 2 2
87 'Ignacy' 'p13' 25 2 2
88 'Ignacy' 'p13' 26 2 2
89 'Ignacy' 'p13' 29 2 2
90 'Ignacy' 'p13' 30 2 2
91 'Ignacy' 'p13' 31 2 2
92 'Ignacy' 'p13' 32 2 2
93 'Ignacy' 'p14' 1 2 2
94 'Ignacy' 'p14' 2 2 2
95 'Ignacy' 'p14' 3 2 2
96 'Ignacy' 'p14' 4 2 2
97 'Ignacy' 'p14' 5 2 2
98 'Ignacy' 'p14' 8 2 2
99 'Ignacy' 'p14' 9 2 2
100 'Ignacy' 'p14' 11 2 2
101 'Ignacy' 'p14' 12 2 2
102 'Ignacy' 'p14' 15 2 2
103 'Ignacy' 'p14' 16 2 2
104 'Ignacy' 'p14' 17 2 2
105 'Ignacy' 'p14' 18 2 2
106 'Ignacy' 'p14' 19 2 2
107 'Ignacy' 'p14' 22 2 2
108 'Ignacy' 'p14' 23 2 2
109 'Ignacy' 'p14' 24 2 2
110 'Ignacy' 'p14' 25 2 2
111 'Ignacy' 'p14' 26 2 2
112 'Ignacy' 'p14' 29 2 2
113 'Ignacy' 'p14' 30 2 2
114 'Ignacy' 'p14' 31 2 2
115 'Ignacy' 'p14' 32 2 2
116 'Ignacy' 'p15' 1 2 2
117 'Ignacy' 'p15' 2 2 2
118 'Ignacy' 'p15' 3 2 2
119 'Ignacy' 'p15' 4 2 2
120 'Ignacy' 'p15' 5 2 2
121 'Ignacy' 'p15' 8 2 2
122 'Ignacy' 'p15' 9 2 2
123 'Ignacy' 'p15' 11 2 2
124 'Ignacy' 'p15' 12 2 2
125 'Ignacy' 'p15' 15 2 2
126 'Ignacy' 'p15' 16 2 2
127 'Ignacy' 'p15' 17 2 2
128 'Ignacy' 'p15' 18 2 2
129 'Ignacy' 'p15' 19 2 2
130 'Ignacy' 'p15' 22 2 2
131 'Ignacy' 'p15' 23 2 2
132 'Ignacy' 'p15' 24 2 2
133 'Ignacy' 'p15' 25 2 2
134 'Ignacy' 'p15' 26 2 2
135 'Ignacy' 'p15' 29 2 2
136 'Ignacy' 'p15' 30 2 2
137 'Ignacy' 'p15' 31 2 2
138 'Ignacy' 'p15' 32 2 2
139 'Pafnucy' 'p20' 1 2 2
140 'Pafnucy' 'p20' 2 2 2
141 'Pafnucy' 'p20' 3 2 2
142 'Pafnucy' 'p20' 4 2 2
143 'Pafnucy' 'p20' 5 2 2
144 'Pafnucy' 'p20' 8 2 2
145 'Pafnucy' 'p20' 9 2 2
146 'Pafnucy' 'p20' 11 2 2
147 'Pafnucy' 'p20' 12 2 2
148 'Pafnucy' 'p20' 15 2 2
149 'Pafnucy' 'p20' 16 2 2
150 'Pafnucy' 'p20' 17 2 2
151 'Pafnucy' 'p20' 18 2 2
152 'Pafnucy' 'p20' 19 2 2
153 'Pafnucy' 'p20' 22 2 2
154 'Pafnucy' 'p20' 23 2 2
155 'Pafnucy' 'p20' 24 2 2
156 'Pafnucy' 'p20' 25 2 2
157 'Pafnucy' 'p20' 26 2 2
158 'Pafnucy' 'p20' 29 2 2
159 'Pafnucy' 'p20' 30 2 2
160 'Pafnucy' 'p20' 31 2 2
161 'Pafnucy' 'p20' 32 2 2
162 'Pafnucy' 'p21' 1 2 2
163 'Pafnucy' 'p21' 2 2 2
164 'Pafnucy' 'p21' 3 2 2
165 'Pafnucy' 'p21' 4 2 2
166 'Pafnucy' 'p21' 5 2 2
167 'Pafnucy' 'p21' 8 2 2
168 'Pafnucy' 'p21' 9 2 2
169 'Pafnucy' 'p21' 11 2 2
170 'Pafnucy' 'p21' 12 2 2
171 'Pafnucy' 'p21' 15 2 2
172 'Pafnucy' 'p21' 16 2 2
173 'Pafnucy' 'p21' 17 2 2
174 'Pafnucy' 'p21' 18 2 2
175 'Pafnucy' 'p21' 19 2 2
176 'Pafnucy' 'p21' 22 2 2
177 'Pafnucy' 'p21' 23 2 2
178 'Pafnucy' 'p21' 24 2 2
179 'Pafnucy' 'p21' 25 2 2
180 'Pafnucy' 'p21' 26 2 2
181 'Pafnucy' 'p21' 29 2 2
182 'Pafnucy' 'p21' 30 2 2
183 'Pafnucy' 'p21' 31 2 2
184 'Pafnucy' 'p21' 32 2 2
185 'Pafnucy' 'p22' 1 2 2
186 'Pafnucy' 'p22' 2 2 2
187 'Pafnucy' 'p22' 3 2 2
188 'Pafnucy' 'p22' 4 2 2
189 'Pafnucy' 'p22' 5 2 2
190 'Pafnucy' 'p22' 8 2 2
191 'Pafnucy' 'p22' 9 2 2
192 'Pafnucy' 'p22' 11 2 2
193 'Pafnucy' 'p22' 12 2 2
194 'Pafnucy' 'p22' 15 2 2
195 'Pafnucy' 'p22' 16 2 2
196 'Pafnucy' 'p22' 17 2 2
197 'Pafnucy' 'p22' 18 2 2
198 'Pafnucy' 'p22' 19 2 2
199 'Pafnucy' 'p22' 22 2 2
200 'Pafnucy' 'p22' 23 2 2
201 'Pafnucy' 'p22' 24 2 2
202 'Pafnucy' 'p22' 25 2 2
203 'Pafnucy' 'p22' 26 2 2
204 'Pafnucy' 'p22' 29 2 2
205 'Pafnucy' 'p22' 30 2 2
206 'Pafnucy' 'p22' 31 2 2
207 'Pafnucy' 'p22' 32 2 2
208 'Pafnucy' 'p23' 1 2 2
209 'Pafnucy' 'p23' 2 2 2
210 'Pafnucy' 'p23' 3 2 2
211 'Pafnucy' 'p23' 4 2 2
212 'Pafnucy' 'p23' 5 2 2
213 'Pafnucy' 'p23' 8 2 2
214 'Pafnucy' 'p23' 9 2 2
215 'Pafnucy' 'p23' 11 2 2
216 'Pafnucy' 'p23' 12 2 2
217 'Pafnucy' 'p23' 15 2 2
218 'Pafnucy' 'p23' 16 2 2
219 'Pafnucy' 'p23' 17 2 2
220 'Pafnucy' 'p23' 18 2 2
221 'Pafnucy' 'p23' 19 2 2
222 'Pafnucy' 'p23' 22 2 2
223 'Pafnucy' 'p23' 23 2 2
224 'Pafnucy' 'p23' 24 2 2
225 'Pafnucy' 'p23' 25 2 2
226 'Pafnucy' 'p23' 26 2 2
227 'Pafnucy' 'p23' 29 2 2
228 'Pafnucy' 'p23' 30 2 2
229 'Pafnucy' 'p23' 31 2 2
230 'Pafnucy' 'p23' 32 2 2
231 'Romuald' 'p30' 1 1 1
232 'Romuald' 'p30' 2 1 1
233 'Romuald' 'p30' 3 1 1
234 'Romuald' 'p30' 4 1 1
235 'Romuald' 'p30' 5 1 1
236 'Romuald' 'p30' 8 1 1
237 'Romuald' 'p30' 9 1 1
238 'Romuald' 'p30' 11 1 1
239 'Romuald' 'p30' 12 1 1
240 'Romuald' 'p30' 15 1 1
241 'Romuald' 'p30' 16 1 1
242 'Romuald' 'p30' 17 1 1
243 'Romuald' 'p30' 18 1 1
244 'Romuald' 'p30' 19 1 1
245 'Romuald' 'p30' 22 1 1
246 'Romuald' 'p30' 23 1 1
247 'Romuald' 'p30' 24 1 1
248 'Romuald' 'p30' 25 1 1
249 'Romuald' 'p30' 26 1 1
250 'Romuald' 'p30' 29 1 1
251 'Romuald' 'p30' 30 1 1
252 'Romuald' 'p30' 31 1 1
253 'Romuald' 'p30' 32 1 1
254 'Romuald' 'p31' 1 1 1
255 'Romuald' 'p31' 2 1 1
256 'Romuald' 'p31' 3 1 1
257 'Romuald' 'p31' 4 1 1
258 'Romuald' 'p31' 5 1 1
259 'Romuald' 'p31' 8 1 1
260 'Romuald' 'p31' 9 1 1
261 'Romuald' 'p31' 11 1 1
262 'Romuald' 'p31' 12 1 1
263 'Romuald' 'p31' 15 1 1
264 'Romuald' 'p31' 16 1 1
265 'Romuald' 'p31' 17 1 1
266 'Romuald' 'p31' 18 1 1
267 'Romuald' 'p31' 19 1 1
268 'Romuald' 'p31' 22 1 1
269 'Romuald' 'p31' 23 1 1
270 'Romuald' 'p31' 24 1 1
271 'Romuald' 'p31' 25 1 1
272 'Romuald' 'p31' 26 1 1
273 'Romuald' 'p31' 29 1 1
274 'Romuald' 'p31' 30 1 1
275 'Romuald' 'p31' 31 1 1
276 'Romuald' 'p31' 32 1 1
277 'Romuald' 'p32' 1 2 2
278 'Romuald' 'p32' 2 2 2
279 'Romuald' 'p32' 3 2 2
280 'Romuald' 'p32' 4 2 2
281 'Romuald' 'p32' 5 2 2
282 'Romuald' 'p32' 8 2 2
283 'Romuald' 'p32' 9 2 2
284 'Romuald' 'p32' 11 2 2
285 'Romuald' 'p32' 12 2 2
286 'Romuald' 'p32' 15 2 2
287 'Romuald' 'p32' 16 2 2
288 'Romuald' 'p32' 17 2 2
289 'Romuald' 'p32' 18 2 2
290 'Romuald' 'p32' 19 2 2
291 'Romuald' 'p32' 22 2 2
292 'Romuald' 'p32' 23 2 2
293 'Romuald' 'p32' 24 2 2
294 'Romuald' 'p32' 25 2 2
295 'Romuald' 'p32' 26 2 2
296 'Romuald' 'p32' 29 2 2
297 'Romuald' 'p32' 30 2 2
298 'Romuald' 'p32' 31 2 2
299 'Romuald' 'p32' 32 2 2
300 'Romuald' 'p33' 1 2 2
301 'Romuald' 'p33' 2 2 2
302 'Romuald' 'p33' 3 2 2
303 'Romuald' 'p33' 4 2 2
304 'Romuald' 'p33' 5 2 2
305 'Romuald' 'p33' 8 2 2
306 'Romuald' 'p33' 9 2 2
307 'Romuald' 'p33' 11 2 2
308 'Romuald' 'p33' 12 2 2
309 'Romuald' 'p33' 15 2 2
310 'Romuald' 'p33' 16 2 2
311 'Romuald' 'p33' 17 2 2
312 'Romuald' 'p33' 18 2 2
313 'Romuald' 'p33' 19 2 2
314 'Romuald' 'p33' 22 2 2
315 'Romuald' 'p33' 23 2 2
316 'Romuald' 'p33' 24 2 2
317 'Romuald' 'p33' 25 2 2
318 'Romuald' 'p33' 26 2 2
319 'Romuald' 'p33' 29 2 2
320 'Romuald' 'p33' 30 2 2
321 'Romuald' 'p33' 31 2 2
322 'Romuald' 'p33' 32 2 2
323 'Romuald' 'p34' 1 2 2
324 'Romuald' 'p34' 2 2 2
325 'Romuald' 'p34' 3 2 2
326 'Romuald' 'p34' 4 2 2
327 'Romuald' 'p34' 5 2 2
328 'Romuald' 'p34' 8 2 2
329 'Romuald' 'p34' 9 2 2
330 'Romuald' 'p34' 11 2 2
331 'Romuald' 'p34' 12 2 2
332 'Romuald' 'p34' 15 2 2
333 'Romuald' 'p34' 16 2 2
334 'Romuald' 'p34' 17 2 2
335 'Romuald' 'p34' 18 2 2
336 'Romuald' 'p34' 19 2 2
337 'Romuald' 'p34' 22 2 2
338 'Romuald' 'p34' 23 2 2
339 'Romuald' 'p34' 24 2 2
340 'Romuald' 'p34' 25 2 2
341 'Romuald' 'p34' 26 2 2
342 'Romuald' 'p34' 29 2 2
343 'Romuald' 'p34' 30 2 2
344 'Romuald' 'p34' 31 2 2
345 'Romuald' 'p34' 32 2 2;

param XBSUM_NO := 0;

param XBSUM:
1   2   3   4   5   6 :=
;

param UBDAY_NO := 0;

param UBDAY:
1   2   3   4 :=
;

param UBSUM_NO := 0;

param UBSUM:
1   2   3   4   5   6 :=
;

set LINKS :=
'Alojzy' 'p1'
'Eugeniusz' 'p5'
'Eugeniusz' 'p6'
'Ignacy' 'p13'
'Ignacy' 'p14'
'Ignacy' 'p15'
'Pafnucy' 'p20'
'Pafnucy' 'p21'
'Pafnucy' 'p22'
'Pafnucy' 'p23'
'Romuald' 'p30'
'Romuald' 'p31'
'Romuald' 'p32'
'Romuald' 'p33'
'Romuald' 'p34';

